c nIsolatedPIs 0
c maxPI 32
p cnf 248 649
c gate 33 8 -24 0
8 -33 0
-24 -33 0
-8 24 33 0
c gate 34 9 -25 0
9 -34 0
-25 -34 0
-9 25 34 0
c gate 35 -33 -34 0
-33 -35 0
-34 -35 0
33 34 35 0
c gate 36 -10 26 0
-10 -36 0
26 -36 0
10 -26 36 0
c gate 37 10 -26 0
10 -37 0
-26 -37 0
-10 26 37 0
c gate 38 -36 -37 0
-36 -38 0
-37 -38 0
36 37 38 0
c gate 39 -35 38 0
-35 -39 0
38 -39 0
35 -38 39 0
c gate 40 35 -38 0
35 -40 0
-38 -40 0
-35 38 40 0
c gate 41 -39 -40 0
-39 -41 0
-40 -41 0
39 40 41 0
c gate 42 -9 25 0
-9 -42 0
25 -42 0
9 -25 42 0
c gate 43 8 24 0
8 -43 0
24 -43 0
-8 -24 43 0
c gate 44 -8 -24 0
-8 -44 0
-24 -44 0
8 24 44 0
c gate 45 -43 -44 0
-43 -45 0
-44 -45 0
43 44 45 0
c gate 46 6 -22 0
6 -46 0
-22 -46 0
-6 22 46 0
c gate 47 -2 18 0
-2 -47 0
18 -47 0
2 -18 47 0
c gate 48 -1 17 0
-1 -48 0
17 -48 0
1 -17 48 0
c gate 49 -47 -48 0
-47 -49 0
-48 -49 0
47 48 49 0
c gate 50 2 -18 0
2 -50 0
-18 -50 0
-2 18 50 0
c gate 51 3 -19 0
3 -51 0
-19 -51 0
-3 19 51 0
c gate 52 -50 -51 0
-50 -52 0
-51 -52 0
50 51 52 0
c gate 53 -49 52 0
-49 -53 0
52 -53 0
49 -52 53 0
c gate 54 -4 20 0
-4 -54 0
20 -54 0
4 -20 54 0
c gate 55 -3 19 0
-3 -55 0
19 -55 0
3 -19 55 0
c gate 56 -54 -55 0
-54 -56 0
-55 -56 0
54 55 56 0
c gate 57 -53 56 0
-53 -57 0
56 -57 0
53 -56 57 0
c gate 58 5 -21 0
5 -58 0
-21 -58 0
-5 21 58 0
c gate 59 4 -20 0
4 -59 0
-20 -59 0
-4 20 59 0
c gate 60 -58 -59 0
-58 -60 0
-59 -60 0
58 59 60 0
c gate 61 -57 60 0
-57 -61 0
60 -61 0
57 -60 61 0
c gate 62 -6 -22 0
-6 -62 0
-22 -62 0
6 22 62 0
c gate 63 6 22 0
6 -63 0
22 -63 0
-6 -22 63 0
c gate 64 -62 -63 0
-62 -64 0
-63 -64 0
62 63 64 0
c gate 65 -5 21 0
-5 -65 0
21 -65 0
5 -21 65 0
c gate 66 -64 -65 0
-64 -66 0
-65 -66 0
64 65 66 0
c gate 67 -61 66 0
-61 -67 0
66 -67 0
61 -66 67 0
c gate 68 -46 -67 0
-46 -68 0
-67 -68 0
46 67 68 0
c gate 69 -7 -23 0
-7 -69 0
-23 -69 0
7 23 69 0
c gate 70 7 23 0
7 -70 0
23 -70 0
-7 -23 70 0
c gate 71 -69 -70 0
-69 -71 0
-70 -71 0
69 70 71 0
c gate 72 -68 -71 0
-68 -72 0
-71 -72 0
68 71 72 0
c gate 73 7 -23 0
7 -73 0
-23 -73 0
-7 23 73 0
c gate 74 -45 73 0
-45 -74 0
73 -74 0
45 -73 74 0
c gate 75 -72 -74 0
-72 -75 0
-74 -75 0
72 74 75 0
c gate 76 -45 -75 0
-45 -76 0
-75 -76 0
45 75 76 0
c gate 77 35 -76 0
35 -77 0
-76 -77 0
-35 76 77 0
c gate 78 -42 -77 0
-42 -78 0
-77 -78 0
42 77 78 0
c gate 79 38 -78 0
38 -79 0
-78 -79 0
-38 78 79 0
c gate 80 -38 78 0
-38 -80 0
78 -80 0
38 -78 80 0
c gate 81 -79 -80 0
-79 -81 0
-80 -81 0
79 80 81 0
c gate 82 -41 -81 0
-41 -82 0
-81 -82 0
41 81 82 0
c gate 83 41 81 0
41 -83 0
81 -83 0
-41 -81 83 0
c gate 84 -82 -83 0
-82 -84 0
-83 -84 0
82 83 84 0
c gate 85 -13 -29 0
-13 -85 0
-29 -85 0
13 29 85 0
c gate 86 13 29 0
13 -86 0
29 -86 0
-13 -29 86 0
c gate 87 -85 -86 0
-85 -87 0
-86 -87 0
85 86 87 0
c gate 88 -12 -28 0
-12 -88 0
-28 -88 0
12 28 88 0
c gate 89 12 28 0
12 -89 0
28 -89 0
-12 -28 89 0
c gate 90 -11 -27 0
-11 -90 0
-27 -90 0
11 27 90 0
c gate 91 11 27 0
11 -91 0
27 -91 0
-11 -27 91 0
c gate 92 -10 -26 0
-10 -92 0
-26 -92 0
10 26 92 0
c gate 93 10 26 0
10 -93 0
26 -93 0
-10 -26 93 0
c gate 94 9 25 0
9 -94 0
25 -94 0
-9 -25 94 0
c gate 95 -93 -94 0
-93 -95 0
-94 -95 0
93 94 95 0
c gate 96 -5 -21 0
-5 -96 0
-21 -96 0
5 21 96 0
c gate 97 -4 -20 0
-4 -97 0
-20 -97 0
4 20 97 0
c gate 98 -96 -97 0
-96 -98 0
-97 -98 0
96 97 98 0
c gate 99 1 17 0
1 -99 0
17 -99 0
-1 -17 99 0
c gate 100 2 18 0
2 -100 0
18 -100 0
-2 -18 100 0
c gate 101 -99 -100 0
-99 -101 0
-100 -101 0
99 100 101 0
c gate 102 -51 -55 0
-51 -102 0
-55 -102 0
51 55 102 0
c gate 103 -2 -18 0
-2 -103 0
-18 -103 0
2 18 103 0
c gate 104 -102 -103 0
-102 -104 0
-103 -104 0
102 103 104 0
c gate 105 -101 104 0
-101 -105 0
104 -105 0
101 -104 105 0
c gate 106 3 19 0
3 -106 0
19 -106 0
-3 -19 106 0
c gate 107 4 20 0
4 -107 0
20 -107 0
-4 -20 107 0
c gate 108 -106 -107 0
-106 -108 0
-107 -108 0
106 107 108 0
c gate 109 -105 108 0
-105 -109 0
108 -109 0
105 -108 109 0
c gate 110 98 -109 0
98 -110 0
-109 -110 0
-98 109 110 0
c gate 111 5 21 0
5 -111 0
21 -111 0
-5 -21 111 0
c gate 112 64 -111 0
64 -112 0
-111 -112 0
-64 111 112 0
c gate 113 -110 112 0
-110 -113 0
112 -113 0
110 -112 113 0
c gate 114 -62 -113 0
-62 -114 0
-113 -114 0
62 113 114 0
c gate 115 71 -114 0
71 -115 0
-114 -115 0
-71 114 115 0
c gate 116 45 115 0
45 -116 0
115 -116 0
-45 -115 116 0
c gate 117 -43 69 0
-43 -117 0
69 -117 0
43 -69 117 0
c gate 118 -9 -25 0
-9 -118 0
-25 -118 0
9 25 118 0
c gate 119 -44 -118 0
-44 -119 0
-118 -119 0
44 118 119 0
c gate 120 -117 119 0
-117 -120 0
119 -120 0
117 -119 120 0
c gate 121 -116 120 0
-116 -121 0
120 -121 0
116 -120 121 0
c gate 122 95 -121 0
95 -122 0
-121 -122 0
-95 121 122 0
c gate 123 -92 -122 0
-92 -123 0
-122 -123 0
92 122 123 0
c gate 124 -91 -123 0
-91 -124 0
-123 -124 0
91 123 124 0
c gate 125 -90 -124 0
-90 -125 0
-124 -125 0
90 124 125 0
c gate 126 -89 -125 0
-89 -126 0
-125 -126 0
89 125 126 0
c gate 127 -88 -126 0
-88 -127 0
-126 -127 0
88 126 127 0
c gate 128 -87 127 0
-87 -128 0
127 -128 0
87 -127 128 0
c gate 129 -88 -89 0
-88 -129 0
-89 -129 0
88 89 129 0
c gate 130 87 129 0
87 -130 0
129 -130 0
-87 -129 130 0
c gate 131 125 130 0
125 -131 0
130 -131 0
-125 -130 131 0
c gate 132 -128 -131 0
-128 -132 0
-131 -132 0
128 131 132 0
c gate 133 -113 -115 0
-113 -133 0
-115 -133 0
113 115 133 0
c gate 134 99 100 0
99 -134 0
100 -134 0
-99 -100 134 0
c gate 135 133 134 0
133 -135 0
134 -135 0
-133 -134 135 0
c gate 136 -116 -135 0
-116 -136 0
-135 -136 0
116 135 136 0
c gate 137 132 136 0
132 -137 0
136 -137 0
-132 -136 137 0
c gate 138 95 -120 0
95 -138 0
-120 -138 0
-95 120 138 0
c gate 139 -90 -92 0
-90 -139 0
-92 -139 0
90 92 139 0
c gate 140 129 139 0
129 -140 0
139 -140 0
-129 -139 140 0
c gate 141 -138 140 0
-138 -141 0
140 -141 0
138 -140 141 0
c gate 142 -125 141 0
-125 -142 0
141 -142 0
125 -141 142 0
c gate 143 116 -142 0
116 -143 0
-142 -143 0
-116 142 143 0
c gate 144 132 -143 0
132 -144 0
-143 -144 0
-132 143 144 0
c gate 145 16 32 0
16 -145 0
32 -145 0
-16 -32 145 0
c gate 146 -16 -32 0
-16 -146 0
-32 -146 0
16 32 146 0
c gate 147 -145 -146 0
-145 -147 0
-146 -147 0
145 146 147 0
c gate 148 -15 -31 0
-15 -148 0
-31 -148 0
15 31 148 0
c gate 149 15 31 0
15 -149 0
31 -149 0
-15 -31 149 0
c gate 150 -14 -30 0
-14 -150 0
-30 -150 0
14 30 150 0
c gate 151 14 30 0
14 -151 0
30 -151 0
-14 -30 151 0
c gate 152 -150 -151 0
-150 -152 0
-151 -152 0
150 151 152 0
c gate 153 -86 -127 0
-86 -153 0
-127 -153 0
86 127 153 0
c gate 154 -85 -153 0
-85 -154 0
-153 -154 0
85 153 154 0
c gate 155 152 -154 0
152 -155 0
-154 -155 0
-152 154 155 0
c gate 156 -150 -155 0
-150 -156 0
-155 -156 0
150 155 156 0
c gate 157 -149 -156 0
-149 -157 0
-156 -157 0
149 156 157 0
c gate 158 -148 -157 0
-148 -158 0
-157 -158 0
148 157 158 0
c gate 159 147 -158 0
147 -159 0
-158 -159 0
-147 158 159 0
c gate 160 -147 158 0
-147 -160 0
158 -160 0
147 -158 160 0
c gate 161 -159 -160 0
-159 -161 0
-160 -161 0
159 160 161 0
c gate 162 -86 -89 0
-86 -162 0
-89 -162 0
86 89 162 0
c gate 163 152 162 0
152 -163 0
162 -163 0
-152 -162 163 0
c gate 164 -152 -162 0
-152 -164 0
-162 -164 0
152 162 164 0
c gate 165 -163 -164 0
-163 -165 0
-164 -165 0
163 164 165 0
c gate 166 -152 154 0
-152 -166 0
154 -166 0
152 -154 166 0
c gate 167 -155 -166 0
-155 -167 0
-166 -167 0
155 166 167 0
c gate 168 165 -167 0
165 -168 0
-167 -168 0
-165 167 168 0
c gate 169 -128 -168 0
-128 -169 0
-168 -169 0
128 168 169 0
c gate 170 -165 167 0
-165 -170 0
167 -170 0
165 -167 170 0
c gate 171 -168 -170 0
-168 -171 0
-170 -171 0
168 170 171 0
c gate 172 -166 -171 0
-166 -172 0
-171 -172 0
166 171 172 0
c gate 173 -169 -172 0
-169 -173 0
-172 -173 0
169 172 173 0
c gate 174 156 -163 0
156 -174 0
-163 -174 0
-156 163 174 0
c gate 175 -148 -149 0
-148 -175 0
-149 -175 0
148 149 175 0
c gate 176 -156 -175 0
-156 -176 0
-175 -176 0
156 175 176 0
c gate 177 -150 -163 0
-150 -177 0
-163 -177 0
150 163 177 0
c gate 178 175 -177 0
175 -178 0
-177 -178 0
-175 177 178 0
c gate 179 -176 -178 0
-176 -179 0
-178 -179 0
176 178 179 0
c gate 180 -174 179 0
-174 -180 0
179 -180 0
174 -179 180 0
c gate 181 -173 -180 0
-173 -181 0
-180 -181 0
173 180 181 0
c gate 182 -161 -181 0
-161 -182 0
-181 -182 0
161 181 182 0
c gate 183 161 181 0
161 -183 0
181 -183 0
-161 -181 183 0
c gate 184 -148 -178 0
-148 -184 0
-178 -184 0
148 178 184 0
c gate 185 147 -184 0
147 -185 0
-184 -185 0
-147 184 185 0
c gate 186 -147 184 0
-147 -186 0
184 -186 0
147 -184 186 0
c gate 187 -185 -186 0
-185 -187 0
-186 -187 0
185 186 187 0
c gate 188 -183 187 0
-183 -188 0
187 -188 0
183 -187 188 0
c gate 189 -182 -188 0
-182 -189 0
-188 -189 0
182 188 189 0
c gate 190 -144 189 0
-144 -190 0
189 -190 0
144 -189 190 0
c gate 191 -137 -190 0
-137 -191 0
-190 -191 0
137 190 191 0
c gate 192 67 71 0
67 -192 0
71 -192 0
-67 -71 192 0
c gate 193 -72 -192 0
-72 -193 0
-192 -193 0
72 192 193 0
c gate 194 158 185 0
158 -194 0
185 -194 0
-158 -185 194 0
c gate 195 193 -194 0
193 -195 0
-194 -195 0
-193 194 195 0
c gate 196 191 195 0
191 -196 0
195 -196 0
-191 -195 196 0
c gate 197 -145 -185 0
-145 -197 0
-185 -197 0
145 185 197 0
c gate 198 193 197 0
193 -198 0
197 -198 0
-193 -197 198 0
c gate 199 159 198 0
159 -199 0
198 -199 0
-159 -198 199 0
c gate 200 -192 -199 0
-192 -200 0
-199 -200 0
192 199 200 0
c gate 201 -196 200 0
-196 -201 0
200 -201 0
196 -200 201 0
c gate 202 -72 201 0
-72 -202 0
201 -202 0
72 -201 202 0
c gate 203 -76 -202 0
-76 -203 0
-202 -203 0
76 202 203 0
c gate 204 -34 -42 0
-34 -204 0
-42 -204 0
34 42 204 0
c gate 205 76 -204 0
76 -205 0
-204 -205 0
-76 204 205 0
c gate 206 -203 -205 0
-203 -206 0
-205 -206 0
203 205 206 0
c gate 207 -36 -79 0
-36 -207 0
-79 -207 0
36 79 207 0
c gate 208 -90 -91 0
-90 -208 0
-91 -208 0
90 91 208 0
c gate 209 -11 12 0
-11 -209 0
12 -209 0
11 -12 209 0
c gate 210 -28 209 0
-28 -210 0
209 -210 0
28 -209 210 0
c gate 211 208 -210 0
208 -211 0
-210 -211 0
-208 210 211 0
c gate 212 -87 -129 0
-87 -212 0
-129 -212 0
87 129 212 0
c gate 213 -211 212 0
-211 -213 0
212 -213 0
211 -212 213 0
c gate 214 -207 213 0
-207 -214 0
213 -214 0
207 -213 214 0
c gate 215 -147 -152 0
-147 -215 0
-152 -215 0
147 152 215 0
c gate 216 -175 215 0
-175 -216 0
215 -216 0
175 -215 216 0
c gate 217 214 216 0
214 -217 0
216 -217 0
-214 -216 217 0
c gate 218 214 -217 0
214 -218 0
-217 -218 0
-214 217 218 0
c gate 219 207 208 0
207 -219 0
208 -219 0
-207 -208 219 0
c gate 220 -207 -208 0
-207 -220 0
-208 -220 0
207 208 220 0
c gate 221 -219 -220 0
-219 -221 0
-220 -221 0
219 220 221 0
c gate 222 -37 -39 0
-37 -222 0
-39 -222 0
37 39 222 0
c gate 223 208 -222 0
208 -223 0
-222 -223 0
-208 222 223 0
c gate 224 -221 -223 0
-221 -224 0
-223 -224 0
221 223 224 0
c gate 225 -83 -206 0
-83 -225 0
-206 -225 0
83 206 225 0
c gate 226 -82 -225 0
-82 -226 0
-225 -226 0
82 225 226 0
c gate 227 -224 226 0
-224 -227 0
226 -227 0
224 -226 227 0
c gate 228 -207 223 0
-207 -228 0
223 -228 0
207 -223 228 0
c gate 229 -220 -228 0
-220 -229 0
-228 -229 0
220 228 229 0
c gate 230 -227 229 0
-227 -230 0
229 -230 0
227 -229 230 0
c gate 231 -214 -230 0
-214 -231 0
-230 -231 0
214 230 231 0
c gate 232 -218 -231 0
-218 -232 0
-231 -232 0
218 231 232 0
c gate 233 -206 -232 0
-206 -233 0
-232 -233 0
206 232 233 0
c gate 234 99 103 0
99 -234 0
103 -234 0
-99 -103 234 0
c gate 235 133 -234 0
133 -235 0
-234 -235 0
-133 234 235 0
c gate 236 -142 -235 0
-142 -236 0
-235 -236 0
142 235 236 0
c gate 237 132 -236 0
132 -237 0
-236 -237 0
-132 236 237 0
c gate 238 189 -237 0
189 -238 0
-237 -238 0
-189 237 238 0
c gate 239 195 -238 0
195 -239 0
-238 -239 0
-195 238 239 0
c gate 240 200 -239 0
200 -240 0
-239 -240 0
-200 239 240 0
c gate 241 -72 240 0
-72 -241 0
240 -241 0
72 -240 241 0
c gate 242 -76 -241 0
-76 -242 0
-241 -242 0
76 241 242 0
c gate 243 -205 -242 0
-205 -243 0
-242 -243 0
205 242 243 0
c gate 244 232 243 0
232 -244 0
243 -244 0
-232 -243 244 0
c gate 245 -233 -244 0
-233 -245 0
-244 -245 0
233 244 245 0
c gate 246 84 245 0
84 -246 0
245 -246 0
-84 -245 246 0
c gate 247 -84 -245 0
-84 -247 0
-245 -247 0
84 245 247 0
c gate 248 -246 -247 0
-246 -248 0
-247 -248 0
246 247 248 0
c PO
248 0
